decision_x1=[0,2];
decision_x2=[0,2];
decision_x3=[0,2];
decision_x4=[0,2];
decision_x5=[0,2];
decision_x6=[0,2];
decision_x7=[0,2];
decision_x8=[0,2];
decision_x9=[0,2];
decision_x10=[0,2];
decision_x11=[0,2];
decision_x12=[0,2];
decision_x13=[0,2];
decision_x14=[0,2];
decision_x15=[0,2];
random_y1=[0,2];
random_y2=[0,2];
random_y3=[0,2];
constraint_x2_x1=[
0,1,3|
0,2,3.8|
1,0,2.8|
1,2,6.9|
2,0,8.4|
2,1,3.8|
];
constraint_x3_x1=[
0,1,1.2|
0,2,4.9|
1,0,6.7|
1,2,5.2|
2,0,1.3|
2,1,1.8|
];
constraint_x4_x1=[
0,1,3|
0,2,0.21|
1,0,8.7|
1,2,9.9|
2,0,7.9|
2,1,6|
];
constraint_x5_x2=[
0,1,9.5|
0,2,0.053|
1,0,9.2|
1,2,3|
2,0,4.6|
2,1,6.3|
];
constraint_x6_x1=[
0,1,9|
0,2,1.3|
1,0,5.8|
1,2,9.9|
2,0,3|
2,1,7.6|
];
constraint_x6_x3=[
0,1,6.9|
0,2,5.7|
1,0,3|
1,2,0.22|
2,0,2.1|
2,1,6.6|
];
constraint_x6_x4=[
0,1,9.9|
0,2,7.9|
1,0,7.1|
1,2,4.5|
2,0,0.81|
2,1,9.3|
];
constraint_x6_x5=[
0,1,5.4|
0,2,2.3|
1,0,7.4|
1,2,5.9|
2,0,3.1|
2,1,5.6|
];
constraint_x7_x2=[
0,1,0.27|
0,2,4.2|
1,0,2.1|
1,2,2.2|
2,0,3.2|
2,1,5.4|
];
constraint_x7_x3=[
0,1,3|
0,2,6.5|
1,0,6.1|
1,2,9.4|
2,0,1.9|
2,1,6.7|
];
constraint_x7_x4=[
0,1,0.14|
0,2,6.9|
1,0,4.2|
1,2,2.3|
2,0,6.4|
2,1,5.2|
];
constraint_x7_x5=[
0,1,7.7|
0,2,8.9|
1,0,8.7|
1,2,0.73|
2,0,1.6|
2,1,9.1|
];
constraint_x8_x2=[
0,1,8.7|
0,2,0.24|
1,0,0.32|
1,2,3.4|
2,0,2.3|
2,1,4.7|
];
constraint_x8_x3=[
0,1,8.3|
0,2,5|
1,0,7.9|
1,2,2.3|
2,0,6.8|
2,1,0.75|
];
constraint_x8_x4=[
0,1,4.4|
0,2,5.9|
1,0,1.8|
1,2,4.8|
2,0,8.1|
2,1,7.2|
];
constraint_x9_x3=[
0,1,8|
0,2,0.91|
1,0,7.7|
1,2,0.44|
2,0,4.6|
2,1,3.4|
];
constraint_x9_x4=[
0,1,2.5|
0,2,6.6|
1,0,3.6|
1,2,5.7|
2,0,1.3|
2,1,6|
];
constraint_x9_x6=[
0,1,2.4|
0,2,7.2|
1,0,0.34|
1,2,1.3|
2,0,0.7|
2,1,0.88|
];
constraint_x9_x7=[
0,1,1.4|
0,2,4.4|
1,0,0.64|
1,2,4|
2,0,2.4|
2,1,3.4|
];
constraint_x10_x2=[
0,1,2.4|
0,2,2.3|
1,0,4.7|
1,2,3.5|
2,0,2.2|
2,1,5.1|
];
constraint_x10_x3=[
0,1,7.6|
0,2,0.23|
1,0,9.1|
1,2,1.9|
2,0,2.1|
2,1,2.1|
];
constraint_x10_x5=[
0,1,8.9|
0,2,1.5|
1,0,4.3|
1,2,6.7|
2,0,7.3|
2,1,6.4|
];
constraint_x10_x6=[
0,1,7.4|
0,2,2.6|
1,0,5.5|
1,2,1.8|
2,0,0.89|
2,1,2.7|
];
constraint_x10_x8=[
0,1,8.8|
0,2,8|
1,0,1.9|
1,2,4.4|
2,0,2|
2,1,3.8|
];
constraint_x10_x9=[
0,1,6.1|
0,2,8.6|
1,0,2.6|
1,2,8|
2,0,9.4|
2,1,3.7|
];
constraint_x11_x2=[
0,1,4.8|
0,2,9.9|
1,0,2.6|
1,2,0.13|
2,0,0.13|
2,1,4.5|
];
constraint_x11_x3=[
0,1,1.2|
0,2,8.6|
1,0,9.5|
1,2,2.1|
2,0,6.5|
2,1,9.7|
];
constraint_x11_x9=[
0,1,5.2|
0,2,2.9|
1,0,3.3|
1,2,2.6|
2,0,4.3|
2,1,7.6|
];
constraint_x12_x3=[
0,1,2.1|
0,2,1|
1,0,8.5|
1,2,2|
2,0,3.6|
2,1,7.5|
];
constraint_x12_x5=[
0,1,7.4|
0,2,6.3|
1,0,3.2|
1,2,0.57|
2,0,8|
2,1,5|
];
constraint_x12_x7=[
0,1,3.7|
0,2,2.2|
1,0,3.5|
1,2,2.4|
2,0,0.96|
2,1,2.1|
];
constraint_x12_x9=[
0,1,5.4|
0,2,2.8|
1,0,9.5|
1,2,5.5|
2,0,7.4|
2,1,7.6|
];
constraint_x12_x10=[
0,1,5.7|
0,2,0.2|
1,0,4.6|
1,2,8|
2,0,2|
2,1,1.8|
];
constraint_x12_x11=[
0,1,0.83|
0,2,3.4|
1,0,7.5|
1,2,3.4|
2,0,3.3|
2,1,4.9|
];
constraint_x13_x2=[
0,1,2.5|
0,2,3.1|
1,0,0.16|
1,2,8.5|
2,0,9.4|
2,1,3.9|
];
constraint_x13_x4=[
0,1,3.5|
0,2,3.1|
1,0,6.2|
1,2,9|
2,0,3.9|
2,1,9.2|
];
constraint_x13_x6=[
0,1,8.2|
0,2,8.6|
1,0,5.2|
1,2,9.4|
2,0,3.1|
2,1,6.1|
];
constraint_x13_x12=[
0,1,6|
0,2,1.3|
1,0,6.4|
1,2,9.7|
2,0,8.2|
2,1,6.9|
];
constraint_x14_x2=[
0,1,9.7|
0,2,4.4|
1,0,7.9|
1,2,9.5|
2,0,5.2|
2,1,10|
];
constraint_x14_x3=[
0,1,5.2|
0,2,6.2|
1,0,6|
1,2,0.95|
2,0,9|
2,1,9.1|
];
constraint_x14_x5=[
0,1,2.4|
0,2,2|
1,0,2.1|
1,2,5.2|
2,0,4.9|
2,1,0.93|
];
constraint_x14_x6=[
0,1,7.1|
0,2,9.5|
1,0,7.2|
1,2,3.7|
2,0,4.7|
2,1,8.4|
];
constraint_x14_x7=[
0,1,9.9|
0,2,1.1|
1,0,7.4|
1,2,2.2|
2,0,3.2|
2,1,2.3|
];
constraint_x14_x8=[
0,1,5.6|
0,2,2|
1,0,2|
1,2,0.87|
2,0,0.17|
2,1,0.82|
];
constraint_x14_x11=[
0,1,5.5|
0,2,5.8|
1,0,9.2|
1,2,3.8|
2,0,2.4|
2,1,2.7|
];
constraint_x14_x13=[
0,1,0.57|
0,2,7.8|
1,0,8.4|
1,2,3.2|
2,0,4.4|
2,1,1.4|
];
constraint_x15_x3=[
0,1,5.6|
0,2,6.4|
1,0,3.4|
1,2,2.3|
2,0,4.4|
2,1,9.1|
];
constraint_x15_x7=[
0,1,4.4|
0,2,9.4|
1,0,0.68|
1,2,3.9|
2,0,2.3|
2,1,0.54|
];
constraint_x15_x8=[
0,1,8.1|
0,2,1.9|
1,0,1.2|
1,2,5.9|
2,0,0.74|
2,1,9|
];
constraint_x15_x10=[
0,1,3.6|
0,2,2.3|
1,0,0.53|
1,2,2.2|
2,0,0.38|
2,1,6.6|
];
constraint_x15_x11=[
0,1,0.73|
0,2,5.8|
1,0,6.8|
1,2,1.2|
2,0,9.5|
2,1,1.4|
];
constraint_x15_x13=[
0,1,1.3|
0,2,2.1|
1,0,6.5|
1,2,5.5|
2,0,7.1|
2,1,9.6|
];
constraint_x15_x14=[
0,1,6.4|
0,2,2.6|
1,0,0.041|
1,2,6.9|
2,0,1.1|
2,1,2|
];
constraint_x1_y1=[
0,0,7.9|
0,1,8|
0,2,8|
1,0,7|
1,1,8.6|
1,2,8.4|
2,0,9.3|
2,1,6.9|
2,2,0.34|
];
constraint_x2_y2=[
0,0,6.9|
0,1,3.4|
0,2,7|
1,0,0.43|
1,1,4.4|
1,2,7.5|
2,0,4.1|
2,1,7.6|
2,2,1.5|
];
constraint_x3_y3=[
0,0,5.2|
0,1,5.9|
0,2,0.73|
1,0,1.8|
1,1,6.9|
1,2,5.9|
2,0,7.5|
2,1,3.6|
2,2,9.2|
];
initial_distribution_y1=[0.35,0.12,0.53];
initial_distribution_y2=[0.29,0.53,0.17];
initial_distribution_y3=[0.47,0.34,0.19];
transition_y1=[
0.21,0.43,0.36|
0.14,0.34,0.52|
0.35,0.37,0.28|
];
transition_y2=[
0.54,0.23,0.23|
0.14,0.17,0.69|
0.39,0.09,0.52|
];
transition_y3=[
0.5,0.09,0.41|
0.2,0.41,0.39|
0.37,0.61,0.02|
];
